unsat
( c0
  c1
  c10
  c100
  c101
  c102
  c103
  c104
  c105
  c106
  c107
  c108
  c109
  c11
  c110
  c111
  c112
  c114
  c115
  c116
  c117
  c119
  c12
  c120
  c122
  c123
  c125
  c13
  c132
  c135
  c136
  c138
  c14
  c145
  c147
  c149
  c15
  c150
  c152
  c159
  c16
  c160
  c161
  c162
  c165
  c167
  c169
  c17
  c171
  c18
  c180
  c182
  c183
  c184
  c19
  c191
  c192
  c193
  c194
  c195
  c197
  c198
  c2
  c20
  c201
  c204
  c205
  c206
  c208
  c209
  c21
  c212
  c213
  c216
  c22
  c220
  c221
  c223
  c225
  c23
  c236
  c238
  c239
  c24
  c241
  c25
  c26
  c260
  c27
  c28
  c29
  c3
  c30
  c31
  c32
  c33
  c34
  c35
  c36
  c360
  c363
  c37
  c372
  c38
  c39
  c4
  c40
  c41
  c42
  c43
  c440
  c450
  c472
  c484
  c485
  c5
  c525
  c541
  c542
  c55
  c554
  c56
  c560
  c57
  c58
  c59
  c6
  c60
  c61
  c62
  c63
  c64
  c65
  c66
  c67
  c68
  c69
  c7
  c70
  c71
  c72
  c73
  c74
  c75
  c76
  c77
  c78
  c79
  c8
  c80
  c81
  c82
  c83
  c84
  c85
  c86
  c87
  c88
  c89
  c9
  c90
  c91
  c92
  c93
  c94
  c95
  c96
  c97
  c98
  c99 )
